%Mem=4GB
%nprocshared=32
%chk=BCar.chk
#N UPBEPBE/gen Opt

 Beta Carotene

0 1
C          1.72695       -6.18759        7.53698
C          2.06184       -6.83332        6.22382
C          1.60253       -6.45633        5.07214
C          0.34476       -5.69095        4.96291
C         -0.09751       -5.05472        6.24757
C          0.56846       -5.20286        7.40163
C          0.23869       -4.46407        8.62692
C         -0.06026       -3.16976        8.71478
C         -0.34908       -2.41578        9.93295
C         -0.75421       -1.13667        9.80709
C         -1.14187       -0.25069       10.88279
C         -1.63351        0.98569       10.67620
C         -2.11055        1.90490       11.69253
C         -2.57619        3.11279       11.28172
C         -3.10694        4.14975       12.10571
C         -1.35713       -4.23332        6.08372
C          1.30147       -7.32996        8.47494
C          2.93772       -5.52003        8.12588
C         -0.15921       -3.09095       11.25085
C         -2.06049        1.48707       13.11729
H          1.73147       -7.85984        6.29031
H          3.13957       -6.80483        6.17158
H          2.34757       -5.76787        4.69933
H          1.55242       -7.31762        4.42150
H          0.41688       -4.91703        4.21254
H         -0.39998       -6.41360        4.66371
H          0.34319       -4.99205        9.48415
H         -0.10579       -2.62944        7.99765
H         -0.85752       -0.78342        8.84538
H         -1.24484       -0.61154       11.94661
H         -1.67704        1.34653        9.70974
H         -2.48214        3.30651       10.37225
H         -3.27993        3.99022       13.18852
H         -1.79126       -4.03675        7.05256
H         -1.22594       -3.23244        5.70141
H         -2.05109       -4.78313        5.46395
H          0.28653       -7.37744        8.84301
H          2.06392       -8.07920        8.62454
H          1.89195       -6.82952        9.22769
H          2.82657       -4.87904        8.98786
H          3.77184       -6.20564        8.16150
H          3.30249       -4.73376        7.47999
H          0.83994       -3.49928       11.21761
H         -0.57052       -2.61140       12.12708
H         -0.66130       -4.04625       11.21523
H         -1.09584        1.33894       13.58033
H         -2.55286        0.55362       13.34762
H         -2.53833        2.18028       13.79405
C         -8.37482       15.68359       16.20901
C         -8.70972       16.32932       17.52217
C         -8.25040       15.95233       18.67385
C         -6.99263       15.18695       18.78308
C         -6.55037       14.55072       17.49842
C         -7.21634       14.69886       16.34436
C         -6.88656       13.96007       15.11907
C         -6.58761       12.66577       15.03121
C         -6.29880       11.91178       13.81304
C         -5.89367       10.63267       13.93890
C         -5.50601        9.74669       12.86320
C         -5.01437        8.51032       13.06979
C         -4.53733        7.59110       12.05346
C         -4.07168        6.38321       12.46427
C         -3.54093        5.34625       11.64029
C         -5.29074       13.72932       17.66227
C         -7.94934       16.82596       15.27105
C         -9.58560       15.01603       15.62011
C         -6.48867       12.58695       12.49514
C         -4.58739        8.00893       10.62871
H         -8.37934       17.35584       17.45568
H         -9.78744       16.30083       17.57441
H         -8.99544       15.26387       19.04666
H         -8.20029       16.81362       19.32449
H         -7.06475       14.41303       19.53345
H         -6.24789       15.90960       19.08228
H         -6.99106       14.48805       14.26184
H         -6.54209       12.12544       15.74834
H         -5.79035       10.27942       14.90061
H         -5.40303       10.10754       11.79938
H         -4.97084        8.14947       14.03626
H         -4.16574        6.18949       13.37374
H         -3.36795        5.50578       10.55747
H         -4.85661       13.53275       16.69343
H         -5.42193       12.72844       18.04458
H         -4.59678       14.27914       18.28204
H         -6.93440       16.87344       14.90298
H         -8.71180       17.57520       15.12145
H         -8.53983       16.32552       14.51830
H         -9.47444       14.37505       14.75813
H        -10.41972       15.70164       15.58449
H         -9.95036       14.22976       16.26600
H         -7.48781       12.99528       12.52839
H         -6.07735       12.10740       11.61891
H         -5.98658       13.54225       12.53076
H         -5.55203        8.15706       10.16566
H         -4.09501        8.94238       10.39837
H         -4.10954        7.31572        9.95195

H     0
S    3   1.00
     33.86500                0.0254938
      5.094790               0.190373
      1.158790               0.852161
S    1   1.00
      0.325840               1.000000
S    1   1.00
      0.102741               1.000000
S    1   1.00
      0.0360000              1.0000000
P    1   1.00
      1.5000000              1.0000000
P    1   1.00
      0.3750000              1.0000000
****
C     0
S    6   1.00
   4563.240                  0.00196665
    682.0240                 0.0152306
    154.9730                 0.0761269
     44.45530                0.2608010
     13.02900                0.6164620
      1.827730               0.2210060
SP   3   1.00
     20.96420                0.114660               0.0402487
      4.803310               0.919999               0.237594
      1.459330              -0.00303068             0.815854
SP   1   1.00
      0.4834560              1.000000               1.000000
SP   1   1.00
      0.1455850              1.000000               1.000000
SP   1   1.00
      0.0438000              1.0000000              1.0000000
D    1   1.00
      1.2520000              1.0000000
D    1   1.00
      0.3130000              1.0000000
****
